50	100	100	100
20	8	96
77	73	40
60	93	70
67	88	88
21	37	6
63	37	9
11	53	81
14	24	99
77	82	8
87	42	66
83	10	84
26	86	63
27	92	84
87	70	9
61	19	3
26	24	91
55	1	11
6	86	72
59	45	4
77	94	16
7	44	85
46	29	23
69	50	91
39	72	19
32	17	67
29	94	90
61	36	30
48	59	96
49	21	4
63	14	17
74	48	59
60	64	73
91	31	96
43	65	50
38	31	57
51	50	67
81	51	17
42	13	9
8	32	53
12	54	74
18	89	3
64	76	94
17	30	26
61	93	10
61	95	67
24	16	11
96	61	52
38	56	6
56	3	35
4	91	73
